NAME : eil76.out.tour
COMMENT : Tour for eil76.tsp (Length 607)
TYPE : TOUR
DIMENSION : 76
TOUR_SECTION
23
48
15
62
32
72
61
27
73
1
29
47
28
44
26
51
33
66
3
75
74
67
5
50
16
39
11
25
34
6
52
10
64
37
9
57
71
38
8
31
43
2
49
17
24
54
30
65
58
13
18
7
45
12
53
56
14
19
69
59
70
36
4
35
68
46
20
60
21
0
42
63
41
40
22
55
23
-1
EOF